c "489492.clq"
p edge 100 1344
e 1 17
e 1 18
e 1 19
e 1 20
e 1 22
e 1 26
e 1 27
e 1 30
e 1 32
e 1 34
e 1 36
e 1 40
e 1 44
e 1 47
e 1 49
e 1 50
e 1 53
e 1 58
e 1 70
e 1 81
e 1 90
e 1 98
e 2 17
e 2 18
e 2 19
e 2 20
e 2 22
e 2 23
e 2 24
e 2 26
e 2 29
e 2 30
e 2 31
e 2 33
e 2 35
e 2 37
e 2 39
e 2 40
e 2 49
e 2 51
e 2 59
e 2 60
e 2 67
e 2 70
e 2 74
e 2 75
e 2 76
e 2 81
e 2 86
e 2 87
e 2 93
e 2 96
e 2 97
e 2 99
e 3 17
e 3 19
e 3 20
e 3 21
e 3 22
e 3 23
e 3 26
e 3 27
e 3 29
e 3 30
e 3 32
e 3 34
e 3 36
e 3 38
e 3 44
e 3 46
e 3 47
e 3 48
e 3 50
e 3 54
e 3 62
e 3 63
e 3 65
e 3 66
e 3 69
e 3 70
e 3 72
e 3 78
e 3 86
e 3 90
e 3 91
e 3 94
e 3 95
e 3 97
e 3 98
e 3 99
e 4 17
e 4 18
e 4 19
e 4 21
e 4 23
e 4 24
e 4 25
e 4 28
e 4 30
e 4 34
e 4 43
e 4 45
e 4 50
e 4 56
e 4 58
e 4 59
e 4 61
e 4 70
e 4 76
e 4 93
e 4 98
e 5 17
e 5 18
e 5 19
e 5 20
e 5 22
e 5 27
e 5 28
e 5 29
e 5 30
e 5 42
e 5 45
e 5 47
e 5 50
e 5 62
e 5 68
e 5 70
e 5 75
e 5 83
e 6 17
e 6 18
e 6 19
e 6 20
e 6 21
e 6 22
e 6 24
e 6 25
e 6 27
e 6 35
e 6 42
e 6 49
e 6 61
e 6 64
e 6 74
e 6 81
e 6 92
e 7 17
e 7 18
e 7 19
e 7 21
e 7 24
e 7 26
e 7 33
e 7 34
e 7 37
e 7 41
e 7 42
e 7 44
e 7 51
e 7 52
e 7 53
e 7 55
e 7 56
e 7 58
e 7 61
e 7 62
e 7 66
e 7 67
e 7 69
e 7 71
e 7 77
e 7 78
e 7 82
e 7 85
e 7 87
e 7 95
e 8 17
e 8 18
e 8 19
e 8 20
e 8 21
e 8 22
e 8 23
e 8 24
e 8 25
e 8 26
e 8 27
e 8 30
e 8 31
e 8 33
e 8 34
e 8 35
e 8 37
e 8 40
e 8 42
e 8 43
e 8 44
e 8 45
e 8 47
e 8 53
e 8 54
e 8 60
e 8 74
e 8 93
e 9 17
e 9 18
e 9 19
e 9 20
e 9 21
e 9 23
e 9 24
e 9 25
e 9 28
e 9 30
e 9 31
e 9 44
e 9 51
e 9 60
e 9 77
e 9 82
e 9 95
e 9 96
e 10 17
e 10 18
e 10 22
e 10 24
e 10 26
e 10 36
e 10 40
e 10 41
e 10 43
e 10 54
e 11 17
e 11 18
e 11 19
e 11 20
e 11 21
e 11 22
e 11 23
e 11 24
e 11 25
e 11 26
e 11 28
e 11 29
e 11 31
e 11 36
e 11 38
e 11 40
e 11 41
e 11 43
e 11 44
e 11 63
e 11 73
e 11 81
e 11 84
e 11 91
e 11 94
e 11 95
e 11 99
e 11 100
e 12 17
e 12 18
e 12 19
e 12 20
e 12 21
e 12 28
e 12 29
e 12 31
e 12 32
e 12 36
e 12 47
e 12 48
e 12 53
e 12 55
e 12 69
e 12 84
e 12 90
e 12 92
e 13 17
e 13 18
e 13 19
e 13 20
e 13 21
e 13 23
e 13 25
e 13 27
e 13 30
e 13 37
e 13 41
e 13 42
e 13 45
e 13 47
e 13 48
e 13 53
e 13 54
e 13 61
e 13 72
e 13 76
e 13 77
e 13 85
e 13 91
e 13 92
e 14 17
e 14 18
e 14 19
e 14 20
e 14 21
e 14 22
e 14 23
e 14 27
e 14 28
e 14 33
e 14 34
e 14 38
e 14 40
e 14 43
e 14 46
e 14 47
e 14 50
e 14 51
e 14 54
e 14 58
e 14 59
e 14 79
e 14 84
e 14 89
e 14 91
e 15 17
e 15 18
e 15 20
e 15 21
e 15 22
e 15 23
e 15 24
e 15 25
e 15 26
e 15 30
e 15 31
e 15 32
e 15 33
e 15 34
e 15 35
e 15 49
e 15 60
e 15 63
e 15 65
e 15 67
e 15 69
e 15 75
e 15 84
e 15 88
e 15 89
e 15 91
e 15 98
e 15 99
e 16 17
e 16 18
e 16 19
e 16 20
e 16 21
e 16 22
e 16 23
e 16 25
e 16 26
e 16 27
e 16 28
e 16 29
e 16 30
e 16 31
e 16 32
e 16 33
e 16 36
e 16 39
e 16 40
e 16 43
e 16 49
e 16 51
e 16 52
e 16 53
e 16 76
e 16 81
e 16 88
e 16 89
e 16 96
e 17 18
e 17 19
e 17 20
e 17 21
e 17 22
e 17 23
e 17 24
e 17 25
e 17 26
e 17 27
e 17 28
e 17 29
e 17 30
e 17 31
e 17 32
e 17 33
e 17 34
e 17 35
e 17 36
e 17 37
e 17 38
e 17 41
e 17 42
e 17 43
e 17 44
e 17 46
e 17 51
e 17 54
e 17 55
e 17 57
e 17 60
e 17 61
e 17 64
e 17 67
e 17 72
e 17 74
e 17 77
e 17 79
e 17 82
e 17 87
e 17 91
e 17 96
e 18 19
e 18 20
e 18 21
e 18 22
e 18 23
e 18 24
e 18 25
e 18 26
e 18 27
e 18 28
e 18 29
e 18 30
e 18 32
e 18 33
e 18 34
e 18 35
e 18 36
e 18 37
e 18 38
e 18 39
e 18 40
e 18 41
e 18 42
e 18 44
e 18 45
e 18 47
e 18 48
e 18 49
e 18 50
e 18 53
e 18 54
e 18 55
e 18 56
e 18 57
e 18 58
e 18 59
e 18 60
e 18 62
e 18 63
e 18 65
e 18 67
e 18 68
e 18 69
e 18 70
e 18 72
e 18 73
e 18 74
e 18 75
e 18 80
e 18 82
e 18 84
e 18 85
e 18 88
e 18 90
e 18 92
e 18 93
e 18 94
e 18 98
e 19 20
e 19 21
e 19 22
e 19 23
e 19 24
e 19 25
e 19 26
e 19 27
e 19 28
e 19 29
e 19 30
e 19 31
e 19 32
e 19 34
e 19 35
e 19 36
e 19 38
e 19 39
e 19 41
e 19 43
e 19 44
e 19 45
e 19 49
e 19 50
e 19 52
e 19 55
e 19 56
e 19 57
e 19 58
e 19 59
e 19 60
e 19 61
e 19 63
e 19 65
e 19 68
e 19 75
e 19 78
e 19 85
e 19 87
e 19 92
e 19 93
e 20 21
e 20 22
e 20 23
e 20 24
e 20 25
e 20 26
e 20 27
e 20 28
e 20 29
e 20 30
e 20 31
e 20 32
e 20 33
e 20 34
e 20 36
e 20 37
e 20 41
e 20 42
e 20 43
e 20 47
e 20 48
e 20 49
e 20 53
e 20 54
e 20 55
e 20 56
e 20 58
e 20 63
e 20 64
e 20 65
e 20 66
e 20 68
e 20 69
e 20 71
e 20 73
e 20 75
e 20 83
e 20 84
e 20 86
e 20 88
e 20 90
e 20 93
e 20 94
e 20 97
e 20 100
e 21 22
e 21 23
e 21 24
e 21 25
e 21 27
e 21 28
e 21 29
e 21 30
e 21 31
e 21 32
e 21 33
e 21 34
e 21 35
e 21 36
e 21 39
e 21 41
e 21 44
e 21 45
e 21 46
e 21 47
e 21 48
e 21 49
e 21 51
e 21 52
e 21 53
e 21 55
e 21 60
e 21 61
e 21 63
e 21 65
e 21 68
e 21 69
e 21 74
e 21 75
e 21 76
e 21 79
e 21 81
e 21 82
e 21 84
e 21 93
e 22 23
e 22 24
e 22 25
e 22 26
e 22 28
e 22 29
e 22 33
e 22 34
e 22 35
e 22 37
e 22 38
e 22 40
e 22 42
e 22 43
e 22 44
e 22 46
e 22 54
e 22 57
e 22 60
e 22 62
e 22 63
e 22 64
e 22 66
e 22 68
e 22 69
e 22 70
e 22 73
e 22 76
e 22 81
e 22 85
e 22 87
e 22 89
e 22 90
e 22 92
e 22 95
e 22 96
e 22 97
e 23 24
e 23 25
e 23 29
e 23 33
e 23 35
e 23 53
e 23 56
e 23 58
e 23 59
e 23 61
e 23 66
e 23 78
e 23 80
e 23 82
e 23 88
e 23 89
e 23 91
e 24 25
e 24 26
e 24 27
e 24 28
e 24 29
e 24 31
e 24 32
e 24 33
e 24 34
e 24 35
e 24 36
e 24 37
e 24 39
e 24 40
e 24 41
e 24 43
e 24 45
e 24 48
e 24 51
e 24 52
e 24 53
e 24 54
e 24 61
e 24 63
e 24 68
e 24 70
e 24 71
e 24 72
e 24 73
e 24 74
e 24 77
e 24 83
e 24 84
e 24 85
e 24 89
e 24 94
e 24 95
e 24 100
e 25 26
e 25 27
e 25 28
e 25 29
e 25 31
e 25 32
e 25 34
e 25 35
e 25 36
e 25 37
e 25 39
e 25 40
e 25 43
e 25 46
e 25 48
e 25 49
e 25 52
e 25 53
e 25 55
e 25 56
e 25 57
e 25 61
e 25 62
e 25 63
e 25 64
e 25 65
e 25 66
e 25 68
e 25 70
e 25 73
e 25 75
e 25 78
e 25 80
e 25 83
e 25 87
e 25 88
e 25 89
e 25 90
e 25 97
e 25 98
e 25 100
e 26 27
e 26 28
e 26 32
e 26 37
e 26 38
e 26 40
e 26 41
e 26 42
e 26 45
e 26 48
e 26 49
e 26 51
e 26 52
e 26 56
e 26 57
e 26 62
e 26 73
e 26 75
e 26 83
e 26 85
e 26 87
e 26 91
e 26 92
e 26 93
e 26 95
e 27 30
e 27 32
e 27 33
e 27 37
e 27 39
e 27 41
e 27 42
e 27 43
e 27 45
e 27 46
e 27 49
e 27 50
e 27 55
e 27 57
e 27 58
e 27 59
e 27 61
e 27 63
e 27 64
e 27 65
e 27 68
e 27 73
e 27 79
e 27 81
e 27 82
e 27 83
e 27 85
e 27 87
e 27 92
e 27 95
e 27 97
e 27 99
e 28 29
e 28 31
e 28 33
e 28 37
e 28 38
e 28 40
e 28 41
e 28 44
e 28 45
e 28 46
e 28 47
e 28 48
e 28 51
e 28 52
e 28 56
e 28 59
e 28 60
e 28 64
e 28 67
e 28 68
e 28 69
e 28 71
e 28 72
e 28 73
e 28 76
e 28 78
e 28 81
e 28 86
e 28 90
e 28 92
e 28 98
e 28 99
e 29 31
e 29 32
e 29 33
e 29 35
e 29 37
e 29 40
e 29 46
e 29 58
e 29 65
e 29 67
e 29 69
e 29 73
e 29 75
e 29 76
e 29 77
e 29 98
e 30 31
e 30 32
e 30 36
e 30 39
e 30 41
e 30 42
e 30 45
e 30 46
e 30 48
e 30 50
e 30 54
e 30 57
e 30 60
e 30 62
e 30 68
e 30 69
e 30 78
e 30 82
e 30 84
e 30 86
e 30 91
e 30 92
e 30 99
e 31 36
e 31 38
e 31 39
e 31 42
e 31 45
e 31 50
e 31 51
e 31 52
e 31 54
e 31 55
e 31 56
e 31 57
e 31 59
e 31 63
e 31 73
e 31 75
e 31 78
e 31 79
e 31 80
e 31 81
e 31 83
e 31 85
e 31 89
e 31 96
e 31 97
e 31 98
e 31 100
e 32 34
e 32 35
e 32 38
e 32 39
e 32 40
e 32 51
e 32 52
e 32 62
e 32 63
e 32 71
e 32 83
e 32 84
e 32 95
e 32 96
e 33 35
e 33 38
e 33 39
e 33 49
e 33 51
e 33 52
e 33 55
e 33 59
e 33 60
e 33 67
e 33 81
e 33 82
e 33 83
e 33 87
e 33 88
e 33 90
e 33 97
e 34 35
e 34 38
e 34 39
e 34 45
e 34 46
e 34 47
e 34 48
e 34 49
e 34 51
e 34 53
e 34 55
e 34 56
e 34 59
e 34 65
e 34 66
e 34 70
e 34 73
e 34 74
e 34 76
e 34 77
e 34 80
e 34 85
e 34 88
e 34 89
e 34 92
e 34 95
e 35 36
e 35 37
e 35 38
e 35 48
e 35 76
e 35 80
e 35 81
e 35 89
e 35 90
e 36 37
e 36 38
e 36 39
e 36 40
e 36 42
e 36 43
e 36 44
e 36 46
e 36 47
e 36 54
e 36 57
e 36 58
e 36 62
e 36 64
e 36 65
e 36 67
e 36 72
e 36 76
e 36 78
e 36 83
e 36 97
e 36 98
e 37 38
e 37 39
e 37 43
e 37 44
e 37 47
e 37 49
e 37 50
e 37 52
e 37 53
e 37 54
e 37 55
e 37 56
e 37 58
e 37 59
e 37 66
e 37 67
e 37 75
e 37 77
e 37 78
e 37 80
e 37 86
e 37 90
e 37 98
e 37 100
e 38 39
e 38 41
e 38 42
e 38 46
e 38 57
e 38 61
e 38 62
e 38 82
e 38 88
e 38 90
e 38 91
e 38 99
e 39 46
e 39 53
e 39 54
e 39 58
e 39 60
e 39 62
e 39 66
e 39 67
e 39 77
e 39 94
e 39 97
e 39 98
e 39 99
e 40 41
e 40 42
e 40 43
e 40 48
e 40 54
e 40 56
e 40 64
e 40 71
e 40 72
e 40 74
e 40 77
e 40 85
e 40 89
e 40 91
e 40 94
e 40 96
e 41 45
e 41 46
e 41 47
e 41 48
e 41 50
e 41 51
e 41 60
e 41 61
e 41 64
e 41 65
e 41 67
e 41 68
e 41 70
e 41 72
e 41 74
e 41 77
e 41 78
e 41 79
e 41 82
e 41 86
e 41 94
e 41 97
e 42 44
e 42 46
e 42 52
e 42 57
e 42 65
e 42 71
e 42 76
e 42 87
e 42 90
e 42 93
e 43 44
e 43 45
e 43 53
e 43 58
e 43 62
e 43 66
e 43 86
e 43 88
e 44 47
e 44 49
e 44 52
e 44 55
e 44 60
e 44 66
e 44 67
e 44 71
e 44 73
e 44 80
e 44 86
e 44 95
e 44 99
e 45 52
e 45 71
e 45 78
e 45 81
e 45 86
e 45 90
e 45 91
e 45 95
e 45 100
e 46 48
e 46 50
e 46 51
e 46 52
e 46 61
e 46 64
e 46 71
e 46 72
e 46 76
e 46 83
e 46 92
e 46 94
e 46 95
e 46 96
e 46 97
e 46 100
e 47 50
e 47 57
e 47 66
e 47 69
e 47 73
e 47 88
e 47 100
e 48 50
e 48 59
e 48 62
e 48 64
e 48 65
e 48 67
e 48 68
e 48 69
e 48 71
e 48 72
e 48 73
e 48 74
e 48 75
e 48 78
e 48 83
e 48 84
e 48 86
e 48 90
e 48 91
e 48 94
e 49 50
e 49 55
e 49 56
e 49 58
e 49 63
e 49 65
e 49 68
e 49 69
e 49 77
e 49 87
e 50 57
e 50 59
e 50 70
e 50 77
e 50 85
e 50 96
e 50 98
e 51 56
e 51 58
e 51 63
e 51 67
e 51 74
e 51 77
e 51 80
e 51 81
e 52 66
e 52 72
e 52 79
e 52 80
e 52 81
e 52 86
e 52 89
e 53 57
e 53 59
e 53 61
e 53 62
e 53 69
e 53 76
e 53 79
e 53 84
e 53 86
e 54 55
e 54 56
e 54 57
e 54 59
e 54 64
e 54 77
e 54 78
e 54 79
e 54 84
e 54 99
e 55 63
e 55 64
e 55 65
e 55 67
e 55 68
e 55 76
e 55 79
e 55 83
e 55 88
e 55 99
e 56 62
e 56 70
e 56 75
e 56 84
e 56 87
e 56 91
e 56 99
e 57 60
e 57 66
e 57 70
e 57 74
e 58 78
e 58 79
e 58 80
e 58 82
e 58 84
e 58 87
e 58 89
e 58 92
e 58 97
e 59 66
e 59 75
e 59 80
e 59 83
e 59 94
e 60 61
e 60 69
e 60 71
e 60 74
e 60 83
e 60 96
e 60 98
e 60 100
e 61 64
e 61 72
e 61 82
e 61 85
e 61 87
e 61 88
e 61 94
e 62 64
e 62 73
e 62 79
e 62 80
e 62 89
e 62 92
e 62 94
e 63 68
e 63 85
e 63 91
e 63 93
e 64 91
e 65 66
e 65 70
e 65 71
e 65 74
e 65 77
e 65 79
e 65 80
e 65 92
e 65 96
e 66 78
e 66 82
e 66 86
e 67 72
e 67 75
e 67 89
e 67 100
e 68 71
e 68 79
e 69 70
e 69 71
e 69 82
e 70 71
e 70 72
e 70 74
e 70 83
e 70 85
e 70 87
e 70 89
e 70 92
e 70 93
e 71 72
e 71 76
e 71 93
e 72 88
e 72 93
e 73 80
e 73 94
e 73 95
e 74 90
e 75 80
e 75 84
e 75 88
e 76 79
e 76 94
e 76 98
e 77 81
e 78 79
e 78 93
e 78 97
e 78 100
e 79 82
e 79 87
e 79 93
e 80 86
e 80 88
e 81 96
e 82 95
e 83 85
e 83 96
e 84 86
e 85 97
e 85 100
e 86 99
e 87 95
e 88 99
e 90 94
e 90 99
e 91 96
e 91 98
e 91 100
e 92 93
e 94 100
e 95 96
e 96 97
e 96 100
